p cnf 965 2478
51 -2 -1 0
-51 2 0
-51 1 0
52 -51 -698 0
-52 51 0
-52 698 0
53 -699 -2 0
-53 699 0
-53 2 0
54 -53 -5 0
-54 53 0
-54 5 0
55 -700 -701 0
-55 700 0
-55 701 0
56 -7 -702 0
-56 7 0
-56 702 0
57 -56 -8 0
-57 56 0
-57 8 0
58 -703 -55 0
-58 703 0
-58 55 0
59 -704 -1 0
-59 704 0
-59 1 0
60 -59 -705 0
-60 59 0
-60 705 0
61 -706 -58 0
-61 706 0
-61 58 0
62 -12 -11 0
-62 12 0
-62 11 0
63 -62 -13 0
-63 62 0
-63 13 0
64 -707 -61 0
-64 707 0
-64 61 0
65 -14 -708 0
-65 14 0
-65 708 0
66 -65 -15 0
-66 65 0
-66 15 0
67 -709 -64 0
-67 709 0
-67 64 0
68 -16 -710 0
-68 16 0
-68 710 0
69 -68 -711 0
-69 68 0
-69 711 0
70 -712 -67 0
-70 712 0
-70 67 0
71 -713 -9 0
-71 713 0
-71 9 0
72 -71 -714 0
-72 71 0
-72 714 0
73 -715 -70 0
-73 715 0
-73 70 0
74 -716 -717 0
-74 716 0
-74 717 0
75 -74 -718 0
-75 74 0
-75 718 0
76 -719 -73 0
-76 719 0
-76 73 0
77 -21 -20 0
-77 21 0
-77 20 0
78 -77 -18 0
-78 77 0
-78 18 0
79 -720 -76 0
-79 720 0
-79 76 0
80 -22 -710 0
-80 22 0
-80 710 0
81 -80 -23 0
-81 80 0
-81 23 0
82 -721 -79 0
-82 721 0
-82 79 0
83 -24 -704 0
-83 24 0
-83 704 0
84 -83 -705 0
-84 83 0
-84 705 0
85 -722 -82 0
-85 722 0
-85 82 0
86 -18 -13 0
-86 18 0
-86 13 0
87 -86 -718 0
-87 86 0
-87 718 0
88 -723 -85 0
-88 723 0
-88 85 0
89 -25 -7 0
-89 25 0
-89 7 0
90 -89 -714 0
-90 89 0
-90 714 0
91 -724 -88 0
-91 724 0
-91 88 0
92 -725 -26 0
-92 725 0
-92 26 0
93 -92 -726 0
-93 92 0
-93 726 0
94 -727 -91 0
-94 727 0
-94 91 0
95 -9 -708 0
-95 9 0
-95 708 0
96 -95 -728 0
-96 95 0
-96 728 0
97 -729 -94 0
-97 729 0
-97 94 0
98 -725 -7 0
-98 725 0
-98 7 0
99 -98 -10 0
-99 98 0
-99 10 0
100 -730 -97 0
-100 730 0
-100 97 0
101 -731 -717 0
-101 731 0
-101 717 0
102 -101 -17 0
-102 101 0
-102 17 0
103 -732 -100 0
-103 732 0
-103 100 0
104 -29 -13 0
-104 29 0
-104 13 0
105 -104 -718 0
-105 104 0
-105 718 0
106 -733 -103 0
-106 733 0
-106 103 0
107 -30 -713 0
-107 30 0
-107 713 0
108 -107 -19 0
-108 107 0
-108 19 0
109 -734 -106 0
-109 734 0
-109 106 0
110 -32 -735 0
-110 32 0
-110 735 0
111 -110 -716 0
-111 110 0
-111 716 0
112 -736 -109 0
-112 736 0
-112 109 0
113 -33 -704 0
-113 33 0
-113 704 0
114 -113 -717 0
-114 113 0
-114 717 0
115 -737 -112 0
-115 737 0
-115 112 0
116 -34 -21 0
-116 34 0
-116 21 0
117 -116 -28 0
-117 116 0
-117 28 0
118 -738 -115 0
-118 738 0
-118 115 0
119 -35 -27 0
-119 35 0
-119 27 0
120 -119 -32 0
-120 119 0
-120 32 0
121 -739 -118 0
-121 739 0
-121 118 0
122 -740 -36 0
-122 740 0
-122 36 0
123 -122 -741 0
-123 122 0
-123 741 0
124 -742 -121 0
-124 742 0
-124 121 0
125 -743 -13 0
-125 743 0
-125 13 0
126 -125 -3 0
-126 125 0
-126 3 0
127 -744 -124 0
-127 744 0
-127 124 0
128 -745 -746 0
-128 745 0
-128 746 0
129 -128 -40 0
-129 128 0
-129 40 0
130 -747 -127 0
-130 747 0
-130 127 0
131 -748 -749 0
-131 748 0
-131 749 0
132 -131 -750 0
-132 131 0
-132 750 0
133 -751 -130 0
-133 751 0
-133 130 0
134 -752 -11 0
-134 752 0
-134 11 0
135 -134 -13 0
-135 134 0
-135 13 0
136 -753 -133 0
-136 753 0
-136 133 0
137 -33 -748 0
-137 33 0
-137 748 0
138 -137 -754 0
-138 137 0
-138 754 0
139 -755 -136 0
-139 755 0
-139 136 0
140 -756 -26 0
-140 756 0
-140 26 0
141 -140 -32 0
-141 140 0
-141 32 0
142 -757 -139 0
-142 757 0
-142 139 0
143 -43 -699 0
-143 43 0
-143 699 0
144 -143 -754 0
-144 143 0
-144 754 0
145 -758 -142 0
-145 758 0
-145 142 0
146 -36 -759 0
-146 36 0
-146 759 0
147 -146 -3 0
-147 146 0
-147 3 0
148 -760 -145 0
-148 760 0
-148 145 0
149 -31 -6 0
-149 31 0
-149 6 0
150 -149 -750 0
-150 149 0
-150 750 0
151 -761 -148 0
-151 761 0
-151 148 0
152 -37 -6 0
-152 37 0
-152 6 0
153 -152 -44 0
-153 152 0
-153 44 0
154 -762 -151 0
-154 762 0
-154 151 0
155 -21 -763 0
-155 21 0
-155 763 0
156 -155 -749 0
-156 155 0
-156 749 0
157 -764 -154 0
-157 764 0
-157 154 0
158 -765 -746 0
-158 765 0
-158 746 0
159 -158 -766 0
-159 158 0
-159 766 0
160 -767 -157 0
-160 767 0
-160 157 0
161 -46 -746 0
-161 46 0
-161 746 0
162 -161 -749 0
-162 161 0
-162 749 0
163 -768 -160 0
-163 768 0
-163 160 0
164 -745 -731 0
-164 745 0
-164 731 0
165 -164 -705 0
-165 164 0
-165 705 0
166 -769 -163 0
-166 769 0
-166 163 0
167 -759 -4 0
-167 759 0
-167 4 0
168 -167 -37 0
-168 167 0
-168 37 0
169 -770 -166 0
-169 770 0
-169 166 0
170 -771 -772 0
-170 771 0
-170 772 0
171 -170 -40 0
-171 170 0
-171 40 0
172 -773 -169 0
-172 773 0
-172 169 0
173 -771 -749 0
-173 771 0
-173 749 0
174 -173 -705 0
-174 173 0
-174 705 0
175 -774 -172 0
-175 774 0
-175 172 0
176 -775 -43 0
-176 775 0
-176 43 0
177 -176 -776 0
-177 176 0
-177 776 0
178 -777 -175 0
-178 777 0
-178 175 0
179 -22 -8 0
-179 22 0
-179 8 0
180 -179 -718 0
-180 179 0
-180 718 0
181 -778 -178 0
-181 778 0
-181 178 0
182 -752 -30 0
-182 752 0
-182 30 0
183 -182 -37 0
-183 182 0
-183 37 0
184 -779 -181 0
-184 779 0
-184 181 0
185 -752 -41 0
-185 752 0
-185 41 0
186 -185 -705 0
-186 185 0
-186 705 0
187 -780 -184 0
-187 780 0
-187 184 0
188 -46 -781 0
-188 46 0
-188 781 0
189 -188 -705 0
-189 188 0
-189 705 0
190 -782 -187 0
-190 782 0
-190 187 0
191 -25 -6 0
-191 25 0
-191 6 0
192 -191 -718 0
-192 191 0
-192 718 0
193 -783 -190 0
-193 783 0
-193 190 0
194 -784 -29 0
-194 784 0
-194 29 0
195 -194 -740 0
-195 194 0
-195 740 0
196 -785 -193 0
-196 785 0
-196 193 0
197 -743 -1 0
-197 743 0
-197 1 0
198 -197 -41 0
-198 197 0
-198 41 0
199 -786 -196 0
-199 786 0
-199 196 0
200 -167 -717 0
-200 167 0
-200 717 0
201 -787 -199 0
-201 787 0
-201 199 0
202 -13 -704 0
-202 13 0
-202 704 0
203 -202 -705 0
-203 202 0
-203 705 0
204 -788 -201 0
-204 788 0
-204 201 0
205 -765 -8 0
-205 765 0
-205 8 0
206 -205 -36 0
-206 205 0
-206 36 0
207 -789 -204 0
-207 789 0
-207 204 0
208 -765 -756 0
-208 765 0
-208 756 0
209 -208 -766 0
-209 208 0
-209 766 0
210 -790 -207 0
-210 790 0
-210 207 0
211 -34 -20 0
-211 34 0
-211 20 0
212 -211 -776 0
-212 211 0
-212 776 0
213 -791 -210 0
-213 791 0
-213 210 0
214 -179 -714 0
-214 179 0
-214 714 0
215 -792 -213 0
-215 792 0
-215 213 0
216 -765 -728 0
-216 765 0
-216 728 0
217 -216 -49 0
-217 216 0
-217 49 0
218 -793 -215 0
-218 793 0
-218 215 0
219 -716 -698 0
-219 716 0
-219 698 0
220 -219 -794 0
-220 219 0
-220 794 0
221 -795 -218 0
-221 795 0
-221 218 0
222 -776 -731 0
-222 776 0
-222 731 0
223 -222 -716 0
-223 222 0
-223 716 0
224 -796 -221 0
-224 796 0
-224 221 0
225 -39 -748 0
-225 39 0
-225 748 0
226 -225 -725 0
-226 225 0
-226 725 0
227 -797 -224 0
-227 797 0
-227 224 0
228 -24 -1 0
-228 24 0
-228 1 0
229 -228 -743 0
-229 228 0
-229 743 0
230 -798 -227 0
-230 798 0
-230 227 0
231 -735 -754 0
-231 735 0
-231 754 0
232 -231 -766 0
-232 231 0
-232 766 0
233 -799 -230 0
-233 799 0
-233 230 0
234 -39 -763 0
-234 39 0
-234 763 0
235 -234 -13 0
-235 234 0
-235 13 0
236 -800 -233 0
-236 800 0
-236 233 0
237 -776 -7 0
-237 776 0
-237 7 0
238 -237 -40 0
-238 237 0
-238 40 0
239 -801 -236 0
-239 801 0
-239 236 0
240 -23 -802 0
-240 23 0
-240 802 0
241 -240 -13 0
-241 240 0
-241 13 0
242 -803 -239 0
-242 803 0
-242 239 0
243 -731 -8 0
-243 731 0
-243 8 0
244 -243 -754 0
-244 243 0
-244 754 0
245 -804 -242 0
-245 804 0
-245 242 0
246 -30 -25 0
-246 30 0
-246 25 0
247 -246 -772 0
-247 246 0
-247 772 0
248 -805 -245 0
-248 805 0
-248 245 0
249 -28 -2 0
-249 28 0
-249 2 0
250 -249 -18 0
-250 249 0
-250 18 0
251 -806 -248 0
-251 806 0
-251 248 0
252 -30 -17 0
-252 30 0
-252 17 0
253 -252 -10 0
-253 252 0
-253 10 0
254 -807 -251 0
-254 807 0
-254 251 0
255 -759 -808 0
-255 759 0
-255 808 0
256 -255 -772 0
-256 255 0
-256 772 0
257 -809 -254 0
-257 809 0
-257 254 0
258 -23 -728 0
-258 23 0
-258 728 0
259 -258 -705 0
-259 258 0
-259 705 0
260 -810 -257 0
-260 810 0
-260 257 0
261 -772 -698 0
-261 772 0
-261 698 0
262 -261 -741 0
-262 261 0
-262 741 0
263 -811 -260 0
-263 811 0
-263 260 0
264 -32 -746 0
-264 32 0
-264 746 0
265 -264 -812 0
-265 264 0
-265 812 0
266 -813 -263 0
-266 813 0
-266 263 0
267 -731 -708 0
-267 731 0
-267 708 0
268 -267 -710 0
-268 267 0
-268 710 0
269 -814 -266 0
-269 814 0
-269 266 0
270 -740 -22 0
-270 740 0
-270 22 0
271 -270 -815 0
-271 270 0
-271 815 0
272 -816 -269 0
-272 816 0
-272 269 0
273 -812 -25 0
-273 812 0
-273 25 0
274 -273 -815 0
-274 273 0
-274 815 0
275 -817 -272 0
-275 817 0
-275 272 0
276 -735 -748 0
-276 735 0
-276 748 0
277 -276 -32 0
-277 276 0
-277 32 0
278 -818 -275 0
-278 818 0
-278 275 0
279 -819 -820 0
-279 819 0
-279 820 0
280 -279 -698 0
-280 279 0
-280 698 0
281 -821 -278 0
-281 821 0
-281 278 0
282 -759 -763 0
-282 759 0
-282 763 0
283 -282 -26 0
-283 282 0
-283 26 0
284 -822 -281 0
-284 822 0
-284 281 0
285 -41 -33 0
-285 41 0
-285 33 0
286 -285 -45 0
-286 285 0
-286 45 0
287 -823 -284 0
-287 823 0
-287 284 0
288 -30 -8 0
-288 30 0
-288 8 0
289 -288 -716 0
-289 288 0
-289 716 0
290 -824 -287 0
-290 824 0
-290 287 0
291 -745 -825 0
-291 745 0
-291 825 0
292 -291 -17 0
-292 291 0
-292 17 0
293 -826 -290 0
-293 826 0
-293 290 0
294 -749 -8 0
-294 749 0
-294 8 0
295 -294 -13 0
-295 294 0
-295 13 0
296 -827 -293 0
-296 827 0
-296 293 0
297 -39 -14 0
-297 39 0
-297 14 0
298 -297 -34 0
-298 297 0
-298 34 0
299 -828 -296 0
-299 828 0
-299 296 0
300 -47 -784 0
-300 47 0
-300 784 0
301 -300 -718 0
-301 300 0
-301 718 0
302 -829 -299 0
-302 829 0
-302 299 0
303 -40 -22 0
-303 40 0
-303 22 0
304 -303 -766 0
-304 303 0
-304 766 0
305 -830 -302 0
-305 830 0
-305 302 0
306 -29 -702 0
-306 29 0
-306 702 0
307 -306 -26 0
-307 306 0
-307 26 0
308 -831 -305 0
-308 831 0
-308 305 0
309 -775 -750 0
-309 775 0
-309 750 0
310 -309 -711 0
-310 309 0
-310 711 0
311 -832 -308 0
-311 832 0
-311 308 0
312 -34 -7 0
-312 34 0
-312 7 0
313 -312 -30 0
-313 312 0
-313 30 0
314 -833 -311 0
-314 833 0
-314 311 0
315 -27 -24 0
-315 27 0
-315 24 0
316 -315 -812 0
-316 315 0
-316 812 0
317 -834 -314 0
-317 834 0
-317 314 0
318 -36 -735 0
-318 36 0
-318 735 0
319 -318 -776 0
-319 318 0
-319 776 0
320 -835 -317 0
-320 835 0
-320 317 0
321 -750 -746 0
-321 750 0
-321 746 0
322 -321 -718 0
-322 321 0
-322 718 0
323 -836 -320 0
-323 836 0
-323 320 0
324 -756 -23 0
-324 756 0
-324 23 0
325 -324 -716 0
-325 324 0
-325 716 0
326 -837 -323 0
-326 837 0
-326 323 0
327 -819 -16 0
-327 819 0
-327 16 0
328 -327 -13 0
-328 327 0
-328 13 0
329 -838 -326 0
-329 838 0
-329 326 0
330 -781 -820 0
-330 781 0
-330 820 0
331 -330 -812 0
-331 330 0
-331 812 0
332 -839 -329 0
-332 839 0
-332 329 0
333 -32 -3 0
-333 32 0
-333 3 0
334 -333 -40 0
-334 333 0
-334 40 0
335 -840 -332 0
-335 840 0
-335 332 0
336 -726 -802 0
-336 726 0
-336 802 0
337 -336 -48 0
-337 336 0
-337 48 0
338 -841 -335 0
-338 841 0
-338 335 0
339 -26 -699 0
-339 26 0
-339 699 0
340 -339 -812 0
-340 339 0
-340 812 0
341 -842 -338 0
-341 842 0
-341 338 0
342 -808 -754 0
-342 808 0
-342 754 0
343 -342 -815 0
-343 342 0
-343 815 0
344 -843 -341 0
-344 843 0
-344 341 0
345 -16 -6 0
-345 16 0
-345 6 0
346 -345 -808 0
-346 345 0
-346 808 0
347 -844 -344 0
-347 844 0
-347 344 0
348 -752 -765 0
-348 752 0
-348 765 0
349 -348 -726 0
-349 348 0
-349 726 0
350 -845 -347 0
-350 845 0
-350 347 0
351 -745 -21 0
-351 745 0
-351 21 0
352 -351 -3 0
-352 351 0
-352 3 0
353 -846 -350 0
-353 846 0
-353 350 0
354 -351 -741 0
-354 351 0
-354 741 0
355 -847 -353 0
-355 847 0
-355 353 0
356 -36 -15 0
-356 36 0
-356 15 0
357 -356 -794 0
-357 356 0
-357 794 0
358 -848 -355 0
-358 848 0
-358 355 0
359 -10 -708 0
-359 10 0
-359 708 0
360 -359 -815 0
-360 359 0
-360 815 0
361 -849 -358 0
-361 849 0
-361 358 0
362 -772 -714 0
-362 772 0
-362 714 0
363 -362 -49 0
-363 362 0
-363 49 0
364 -850 -361 0
-364 850 0
-364 361 0
365 -735 -802 0
-365 735 0
-365 802 0
366 -365 -752 0
-366 365 0
-366 752 0
367 -851 -364 0
-367 851 0
-367 364 0
368 -34 -852 0
-368 34 0
-368 852 0
369 -368 -741 0
-369 368 0
-369 741 0
370 -853 -367 0
-370 853 0
-370 367 0
371 -771 -4 0
-371 771 0
-371 4 0
372 -371 -698 0
-372 371 0
-372 698 0
373 -854 -370 0
-373 854 0
-373 370 0
374 -50 -12 0
-374 50 0
-374 12 0
375 -374 -794 0
-375 374 0
-375 794 0
376 -855 -373 0
-376 855 0
-376 373 0
377 -856 -28 0
-377 856 0
-377 28 0
378 -377 -48 0
-378 377 0
-378 48 0
379 -857 -376 0
-379 857 0
-379 376 0
380 -802 -6 0
-380 802 0
-380 6 0
381 -380 -825 0
-381 380 0
-381 825 0
382 -858 -379 0
-382 858 0
-382 379 0
383 -26 -708 0
-383 26 0
-383 708 0
384 -383 -743 0
-384 383 0
-384 743 0
385 -859 -382 0
-385 859 0
-385 382 0
386 -43 -2 0
-386 43 0
-386 2 0
387 -386 -815 0
-387 386 0
-387 815 0
388 -860 -385 0
-388 860 0
-388 385 0
389 -819 -35 0
-389 819 0
-389 35 0
390 -389 -731 0
-390 389 0
-390 731 0
391 -861 -388 0
-391 861 0
-391 388 0
392 -745 -4 0
-392 745 0
-392 4 0
393 -392 -698 0
-393 392 0
-393 698 0
394 -862 -391 0
-394 862 0
-394 391 0
395 -710 -8 0
-395 710 0
-395 8 0
396 -395 -741 0
-396 395 0
-396 741 0
397 -863 -394 0
-397 863 0
-397 394 0
398 -856 -743 0
-398 856 0
-398 743 0
399 -398 -13 0
-399 398 0
-399 13 0
400 -864 -397 0
-400 864 0
-400 397 0
401 -29 -710 0
-401 29 0
-401 710 0
402 -401 -50 0
-402 401 0
-402 50 0
403 -865 -400 0
-403 865 0
-403 400 0
404 -740 -6 0
-404 740 0
-404 6 0
405 -404 -866 0
-405 404 0
-405 866 0
406 -867 -403 0
-406 867 0
-406 403 0
407 -24 -713 0
-407 24 0
-407 713 0
408 -407 -856 0
-408 407 0
-408 856 0
409 -868 -406 0
-409 868 0
-409 406 0
410 -756 -24 0
-410 756 0
-410 24 0
411 -410 -35 0
-411 410 0
-411 35 0
412 -869 -409 0
-412 869 0
-412 409 0
413 -765 -802 0
-413 765 0
-413 802 0
414 -413 -716 0
-414 413 0
-414 716 0
415 -870 -412 0
-415 870 0
-415 412 0
416 -812 -717 0
-416 812 0
-416 717 0
417 -416 -45 0
-417 416 0
-417 45 0
418 -871 -415 0
-418 871 0
-418 415 0
419 -38 -718 0
-419 38 0
-419 718 0
420 -419 -45 0
-420 419 0
-420 45 0
421 -872 -418 0
-421 872 0
-421 418 0
422 -702 -4 0
-422 702 0
-422 4 0
423 -422 -5 0
-423 422 0
-423 5 0
424 -873 -421 0
-424 873 0
-424 421 0
425 -866 -48 0
-425 866 0
-425 48 0
426 -425 -718 0
-426 425 0
-426 718 0
427 -874 -424 0
-427 874 0
-427 424 0
428 -28 -24 0
-428 28 0
-428 24 0
429 -428 -711 0
-429 428 0
-429 711 0
430 -875 -427 0
-430 875 0
-430 427 0
431 -745 -704 0
-431 745 0
-431 704 0
432 -431 -856 0
-432 431 0
-432 856 0
433 -876 -430 0
-433 876 0
-433 430 0
434 -708 -717 0
-434 708 0
-434 717 0
435 -434 -5 0
-435 434 0
-435 5 0
436 -877 -433 0
-436 877 0
-436 433 0
437 -759 -708 0
-437 759 0
-437 708 0
438 -437 -17 0
-438 437 0
-438 17 0
439 -878 -436 0
-439 878 0
-439 436 0
440 -750 -13 0
-440 750 0
-440 13 0
441 -440 -705 0
-441 440 0
-441 705 0
442 -879 -439 0
-442 879 0
-442 439 0
443 -49 -716 0
-443 49 0
-443 716 0
444 -443 -815 0
-444 443 0
-444 815 0
445 -880 -442 0
-445 880 0
-445 442 0
446 -812 -28 0
-446 812 0
-446 28 0
447 -446 -766 0
-447 446 0
-447 766 0
448 -881 -445 0
-448 881 0
-448 445 0
449 -750 -35 0
-449 750 0
-449 35 0
450 -449 -50 0
-450 449 0
-450 50 0
451 -882 -448 0
-451 882 0
-451 448 0
452 -746 -763 0
-452 746 0
-452 763 0
453 -452 -725 0
-453 452 0
-453 725 0
454 -883 -451 0
-454 883 0
-454 451 0
455 -9 -702 0
-455 9 0
-455 702 0
456 -455 -25 0
-456 455 0
-456 25 0
457 -884 -454 0
-457 884 0
-457 454 0
458 -765 -702 0
-458 765 0
-458 702 0
459 -458 -27 0
-459 458 0
-459 27 0
460 -885 -457 0
-460 885 0
-460 457 0
461 -763 -8 0
-461 763 0
-461 8 0
462 -461 -2 0
-462 461 0
-462 2 0
463 -886 -460 0
-463 886 0
-463 460 0
464 -62 -754 0
-464 62 0
-464 754 0
465 -887 -463 0
-465 887 0
-465 463 0
466 -825 -802 0
-466 825 0
-466 802 0
467 -466 -718 0
-467 466 0
-467 718 0
468 -888 -465 0
-468 888 0
-468 465 0
469 -42 -21 0
-469 42 0
-469 21 0
470 -469 -2 0
-470 469 0
-470 2 0
471 -889 -468 0
-471 889 0
-471 468 0
472 -282 -49 0
-472 282 0
-472 49 0
473 -890 -471 0
-473 890 0
-473 471 0
474 -819 -731 0
-474 819 0
-474 731 0
475 -474 -18 0
-475 474 0
-475 18 0
476 -891 -473 0
-476 891 0
-476 473 0
477 -16 -702 0
-477 16 0
-477 702 0
478 -477 -42 0
-478 477 0
-478 42 0
479 -892 -476 0
-479 892 0
-479 476 0
480 -29 -820 0
-480 29 0
-480 820 0
481 -480 -30 0
-481 480 0
-481 30 0
482 -893 -479 0
-482 893 0
-482 479 0
483 -25 -759 0
-483 25 0
-483 759 0
484 -483 -30 0
-484 483 0
-484 30 0
485 -894 -482 0
-485 894 0
-485 482 0
486 -771 -22 0
-486 771 0
-486 22 0
487 -486 -2 0
-487 486 0
-487 2 0
488 -895 -485 0
-488 895 0
-488 485 0
489 -49 -698 0
-489 49 0
-489 698 0
490 -489 -766 0
-490 489 0
-490 766 0
491 -896 -488 0
-491 896 0
-491 488 0
492 -36 -24 0
-492 36 0
-492 24 0
493 -492 -698 0
-493 492 0
-493 698 0
494 -897 -491 0
-494 897 0
-494 491 0
495 -36 -731 0
-495 36 0
-495 731 0
496 -495 -866 0
-496 495 0
-496 866 0
497 -898 -494 0
-497 898 0
-497 494 0
498 -771 -36 0
-498 771 0
-498 36 0
499 -498 -726 0
-499 498 0
-499 726 0
500 -899 -497 0
-500 899 0
-500 497 0
501 -726 -21 0
-501 726 0
-501 21 0
502 -501 -711 0
-502 501 0
-502 711 0
503 -900 -500 0
-503 900 0
-503 500 0
504 -34 -717 0
-504 34 0
-504 717 0
505 -504 -794 0
-505 504 0
-505 794 0
506 -901 -503 0
-506 901 0
-506 503 0
507 -750 -34 0
-507 750 0
-507 34 0
508 -507 -815 0
-508 507 0
-508 815 0
509 -902 -506 0
-509 902 0
-509 506 0
510 -43 -825 0
-510 43 0
-510 825 0
511 -510 -808 0
-511 510 0
-511 808 0
512 -903 -509 0
-512 903 0
-512 509 0
513 -43 -781 0
-513 43 0
-513 781 0
514 -513 -740 0
-514 513 0
-514 740 0
515 -904 -512 0
-515 904 0
-515 512 0
516 -750 -39 0
-516 750 0
-516 39 0
517 -516 -10 0
-517 516 0
-517 10 0
518 -905 -515 0
-518 905 0
-518 515 0
519 -37 -5 0
-519 37 0
-519 5 0
520 -519 -866 0
-520 519 0
-520 866 0
521 -906 -518 0
-521 906 0
-521 518 0
522 -815 -14 0
-522 815 0
-522 14 0
523 -522 -38 0
-523 522 0
-523 38 0
524 -907 -521 0
-524 907 0
-524 521 0
525 -756 -735 0
-525 756 0
-525 735 0
526 -525 -24 0
-526 525 0
-526 24 0
527 -908 -524 0
-527 908 0
-527 524 0
528 -711 -708 0
-528 711 0
-528 708 0
529 -528 -5 0
-529 528 0
-529 5 0
530 -909 -527 0
-530 909 0
-530 527 0
531 -776 -717 0
-531 776 0
-531 717 0
532 -531 -38 0
-532 531 0
-532 38 0
533 -910 -530 0
-533 910 0
-533 530 0
534 -745 -772 0
-534 745 0
-534 772 0
535 -534 -38 0
-535 534 0
-535 38 0
536 -911 -533 0
-536 911 0
-536 533 0
537 -775 -765 0
-537 775 0
-537 765 0
538 -537 -27 0
-538 537 0
-538 27 0
539 -912 -536 0
-539 912 0
-539 536 0
540 -28 -26 0
-540 28 0
-540 26 0
541 -540 -48 0
-541 540 0
-541 48 0
542 -913 -539 0
-542 913 0
-542 539 0
543 -856 -21 0
-543 856 0
-543 21 0
544 -543 -48 0
-544 543 0
-544 48 0
545 -914 -542 0
-545 914 0
-545 542 0
546 -14 -820 0
-546 14 0
-546 820 0
547 -546 -714 0
-547 546 0
-547 714 0
548 -915 -545 0
-548 915 0
-548 545 0
549 -748 -12 0
-549 748 0
-549 12 0
550 -549 -32 0
-550 549 0
-550 32 0
551 -916 -548 0
-551 916 0
-551 548 0
552 -763 -702 0
-552 763 0
-552 702 0
553 -552 -740 0
-553 552 0
-553 740 0
554 -917 -551 0
-554 917 0
-554 551 0
555 -776 -37 0
-555 776 0
-555 37 0
556 -555 -10 0
-556 555 0
-556 10 0
557 -918 -554 0
-557 918 0
-557 554 0
558 -808 -21 0
-558 808 0
-558 21 0
559 -558 -19 0
-559 558 0
-559 19 0
560 -919 -557 0
-560 919 0
-560 557 0
561 -29 -713 0
-561 29 0
-561 713 0
562 -561 -6 0
-562 561 0
-562 6 0
563 -920 -560 0
-563 920 0
-563 560 0
564 -745 -31 0
-564 745 0
-564 31 0
565 -564 -710 0
-565 564 0
-565 710 0
566 -921 -563 0
-566 921 0
-566 563 0
567 -745 -802 0
-567 745 0
-567 802 0
568 -567 -21 0
-568 567 0
-568 21 0
569 -922 -566 0
-569 922 0
-569 566 0
570 -39 -820 0
-570 39 0
-570 820 0
571 -570 -714 0
-571 570 0
-571 714 0
572 -923 -569 0
-572 923 0
-572 569 0
573 -21 -11 0
-573 21 0
-573 11 0
574 -573 -750 0
-574 573 0
-574 750 0
575 -924 -572 0
-575 924 0
-575 572 0
576 -24 -15 0
-576 24 0
-576 15 0
577 -576 -716 0
-577 576 0
-577 716 0
578 -925 -575 0
-578 925 0
-578 575 0
579 -35 -756 0
-579 35 0
-579 756 0
580 -579 -15 0
-580 579 0
-580 15 0
581 -926 -578 0
-581 926 0
-581 578 0
582 -41 -12 0
-582 41 0
-582 12 0
583 -582 -13 0
-583 582 0
-583 13 0
584 -927 -581 0
-584 927 0
-584 581 0
585 -28 -20 0
-585 28 0
-585 20 0
586 -585 -714 0
-586 585 0
-586 714 0
587 -928 -584 0
-587 928 0
-587 584 0
588 -34 -763 0
-588 34 0
-588 763 0
589 -588 -33 0
-589 588 0
-589 33 0
590 -929 -587 0
-590 929 0
-590 587 0
591 -48 -820 0
-591 48 0
-591 820 0
592 -591 -19 0
-592 591 0
-592 19 0
593 -930 -590 0
-593 930 0
-593 590 0
594 -30 -21 0
-594 30 0
-594 21 0
595 -594 -19 0
-595 594 0
-595 19 0
596 -931 -593 0
-596 931 0
-596 593 0
597 -11 -820 0
-597 11 0
-597 820 0
598 -597 -32 0
-598 597 0
-598 32 0
599 -932 -596 0
-599 932 0
-599 596 0
600 -12 -699 0
-600 12 0
-600 699 0
601 -600 -40 0
-601 600 0
-601 40 0
602 -933 -599 0
-602 933 0
-602 599 0
603 -825 -710 0
-603 825 0
-603 710 0
604 -603 -718 0
-604 603 0
-604 718 0
605 -934 -602 0
-605 934 0
-605 602 0
606 -11 -698 0
-606 11 0
-606 698 0
607 -606 -718 0
-607 606 0
-607 718 0
608 -935 -605 0
-608 935 0
-608 605 0
609 -749 -6 0
-609 749 0
-609 6 0
610 -609 -23 0
-610 609 0
-610 23 0
611 -936 -608 0
-611 936 0
-611 608 0
612 -14 -710 0
-612 14 0
-612 710 0
613 -612 -711 0
-613 612 0
-613 711 0
614 -937 -611 0
-614 937 0
-614 611 0
615 -772 -30 0
-615 772 0
-615 30 0
616 -615 -45 0
-616 615 0
-616 45 0
617 -938 -614 0
-617 938 0
-617 614 0
618 -740 -825 0
-618 740 0
-618 825 0
619 -618 -718 0
-619 618 0
-619 718 0
620 -939 -617 0
-620 939 0
-620 617 0
621 -10 -717 0
-621 10 0
-621 717 0
622 -621 -766 0
-622 621 0
-622 766 0
623 -940 -620 0
-623 940 0
-623 620 0
624 -9 -820 0
-624 9 0
-624 820 0
625 -624 -754 0
-625 624 0
-625 754 0
626 -941 -623 0
-626 941 0
-626 623 0
627 -731 -18 0
-627 731 0
-627 18 0
628 -627 -718 0
-628 627 0
-628 718 0
629 -942 -626 0
-629 942 0
-629 626 0
630 -34 -22 0
-630 34 0
-630 22 0
631 -630 -40 0
-631 630 0
-631 40 0
632 -943 -629 0
-632 943 0
-632 629 0
633 -735 -28 0
-633 735 0
-633 28 0
634 -633 -750 0
-634 633 0
-634 750 0
635 -944 -632 0
-635 944 0
-635 632 0
636 -22 -17 0
-636 22 0
-636 17 0
637 -636 -37 0
-637 636 0
-637 37 0
638 -945 -635 0
-638 945 0
-638 635 0
639 -30 -13 0
-639 30 0
-639 13 0
640 -639 -794 0
-640 639 0
-640 794 0
641 -946 -638 0
-641 946 0
-641 638 0
642 -749 -802 0
-642 749 0
-642 802 0
643 -642 -784 0
-643 642 0
-643 784 0
644 -947 -641 0
-644 947 0
-644 641 0
645 -41 -28 0
-645 41 0
-645 28 0
646 -645 -5 0
-646 645 0
-646 5 0
647 -948 -644 0
-647 948 0
-647 644 0
648 -808 -19 0
-648 808 0
-648 19 0
649 -648 -766 0
-649 648 0
-649 766 0
650 -949 -647 0
-650 949 0
-650 647 0
651 -29 -4 0
-651 29 0
-651 4 0
652 -651 -728 0
-652 651 0
-652 728 0
653 -950 -650 0
-653 950 0
-653 650 0
654 -750 -825 0
-654 750 0
-654 825 0
655 -654 -3 0
-655 654 0
-655 3 0
656 -951 -653 0
-656 951 0
-656 653 0
657 -781 -728 0
-657 781 0
-657 728 0
658 -657 -726 0
-658 657 0
-658 726 0
659 -952 -656 0
-659 952 0
-659 656 0
660 -743 -9 0
-660 743 0
-660 9 0
661 -660 -18 0
-661 660 0
-661 18 0
662 -953 -659 0
-662 953 0
-662 659 0
663 -714 -711 0
-663 714 0
-663 711 0
664 -663 -766 0
-664 663 0
-664 766 0
665 -954 -662 0
-665 954 0
-665 662 0
666 -765 -23 0
-666 765 0
-666 23 0
667 -666 -50 0
-667 666 0
-667 50 0
668 -955 -665 0
-668 955 0
-668 665 0
669 -27 -711 0
-669 27 0
-669 711 0
670 -669 -18 0
-670 669 0
-670 18 0
671 -956 -668 0
-671 956 0
-671 668 0
672 -27 -717 0
-672 27 0
-672 717 0
673 -672 -44 0
-673 672 0
-673 44 0
674 -957 -671 0
-674 957 0
-674 671 0
675 -745 -856 0
-675 745 0
-675 856 0
676 -675 -17 0
-676 675 0
-676 17 0
677 -958 -674 0
-677 958 0
-677 674 0
678 -480 -866 0
-678 480 0
-678 866 0
679 -959 -677 0
-679 959 0
-679 677 0
680 -781 -702 0
-680 781 0
-680 702 0
681 -680 -22 0
-681 680 0
-681 22 0
682 -960 -679 0
-682 960 0
-682 679 0
683 -752 -13 0
-683 752 0
-683 13 0
684 -683 -812 0
-684 683 0
-684 812 0
685 -961 -682 0
-685 961 0
-685 682 0
686 -28 -21 0
-686 28 0
-686 21 0
687 -686 -30 0
-687 686 0
-687 30 0
688 -962 -685 0
-688 962 0
-688 685 0
689 -759 -713 0
-689 759 0
-689 713 0
690 -689 -710 0
-690 689 0
-690 710 0
691 -963 -688 0
-691 963 0
-691 688 0
692 -47 -702 0
-692 47 0
-692 702 0
693 -692 -1 0
-693 692 0
-693 1 0
694 -964 -691 0
-694 964 0
-694 691 0
695 -735 -14 0
-695 735 0
-695 14 0
696 -695 -38 0
-696 695 0
-696 38 0
697 -965 -694 0
-697 965 0
-697 694 0
-698 -3 0
698 3 0
-699 -4 0
699 4 0
-700 -54 0
700 54 0
-701 -52 0
701 52 0
-702 -6 0
702 6 0
-703 -57 0
703 57 0
-704 -9 0
704 9 0
-705 -10 0
705 10 0
-706 -60 0
706 60 0
-707 -63 0
707 63 0
-708 -8 0
708 8 0
-709 -66 0
709 66 0
-710 -12 0
710 12 0
-711 -13 0
711 13 0
-712 -69 0
712 69 0
-713 -14 0
713 14 0
-714 -17 0
714 17 0
-715 -72 0
715 72 0
-716 -18 0
716 18 0
-717 -7 0
717 7 0
-718 -19 0
718 19 0
-719 -75 0
719 75 0
-720 -78 0
720 78 0
-721 -81 0
721 81 0
-722 -84 0
722 84 0
-723 -87 0
723 87 0
-724 -90 0
724 90 0
-725 -27 0
725 27 0
-726 -23 0
726 23 0
-727 -93 0
727 93 0
-728 -2 0
728 2 0
-729 -96 0
729 96 0
-730 -99 0
730 99 0
-731 -28 0
731 28 0
-732 -102 0
732 102 0
-733 -105 0
733 105 0
-734 -108 0
734 108 0
-735 -31 0
735 31 0
-736 -111 0
736 111 0
-737 -114 0
737 114 0
-738 -117 0
738 117 0
-739 -120 0
739 120 0
-740 -37 0
740 37 0
-741 -38 0
741 38 0
-742 -123 0
742 123 0
-743 -15 0
743 15 0
-744 -126 0
744 126 0
-745 -39 0
745 39 0
-746 -16 0
746 16 0
-747 -129 0
747 129 0
-748 -30 0
748 30 0
-749 -26 0
749 26 0
-750 -41 0
750 41 0
-751 -132 0
751 132 0
-752 -42 0
752 42 0
-753 -135 0
753 135 0
-754 -5 0
754 5 0
-755 -138 0
755 138 0
-756 -33 0
756 33 0
-757 -141 0
757 141 0
-758 -144 0
758 144 0
-759 -24 0
759 24 0
-760 -147 0
760 147 0
-761 -150 0
761 150 0
-762 -153 0
762 153 0
-763 -11 0
763 11 0
-764 -156 0
764 156 0
-765 -34 0
765 34 0
-766 -45 0
766 45 0
-767 -159 0
767 159 0
-768 -162 0
768 162 0
-769 -165 0
769 165 0
-770 -168 0
770 168 0
-771 -43 0
771 43 0
-772 -36 0
772 36 0
-773 -171 0
773 171 0
-774 -174 0
774 174 0
-775 -47 0
775 47 0
-776 -48 0
776 48 0
-777 -177 0
777 177 0
-778 -180 0
778 180 0
-779 -183 0
779 183 0
-780 -186 0
780 186 0
-781 -29 0
781 29 0
-782 -189 0
782 189 0
-783 -192 0
783 192 0
-784 -32 0
784 32 0
-785 -195 0
785 195 0
-786 -198 0
786 198 0
-787 -200 0
787 200 0
-788 -203 0
788 203 0
-789 -206 0
789 206 0
-790 -209 0
790 209 0
-791 -212 0
791 212 0
-792 -214 0
792 214 0
-793 -217 0
793 217 0
-794 -40 0
794 40 0
-795 -220 0
795 220 0
-796 -223 0
796 223 0
-797 -226 0
797 226 0
-798 -229 0
798 229 0
-799 -232 0
799 232 0
-800 -235 0
800 235 0
-801 -238 0
801 238 0
-802 -20 0
802 20 0
-803 -241 0
803 241 0
-804 -244 0
804 244 0
-805 -247 0
805 247 0
-806 -250 0
806 250 0
-807 -253 0
807 253 0
-808 -22 0
808 22 0
-809 -256 0
809 256 0
-810 -259 0
810 259 0
-811 -262 0
811 262 0
-812 -44 0
812 44 0
-813 -265 0
813 265 0
-814 -268 0
814 268 0
-815 -50 0
815 50 0
-816 -271 0
816 271 0
-817 -274 0
817 274 0
-818 -277 0
818 277 0
-819 -46 0
819 46 0
-820 -1 0
820 1 0
-821 -280 0
821 280 0
-822 -283 0
822 283 0
-823 -286 0
823 286 0
-824 -289 0
824 289 0
-825 -25 0
825 25 0
-826 -292 0
826 292 0
-827 -295 0
827 295 0
-828 -298 0
828 298 0
-829 -301 0
829 301 0
-830 -304 0
830 304 0
-831 -307 0
831 307 0
-832 -310 0
832 310 0
-833 -313 0
833 313 0
-834 -316 0
834 316 0
-835 -319 0
835 319 0
-836 -322 0
836 322 0
-837 -325 0
837 325 0
-838 -328 0
838 328 0
-839 -331 0
839 331 0
-840 -334 0
840 334 0
-841 -337 0
841 337 0
-842 -340 0
842 340 0
-843 -343 0
843 343 0
-844 -346 0
844 346 0
-845 -349 0
845 349 0
-846 -352 0
846 352 0
-847 -354 0
847 354 0
-848 -357 0
848 357 0
-849 -360 0
849 360 0
-850 -363 0
850 363 0
-851 -366 0
851 366 0
-852 -21 0
852 21 0
-853 -369 0
853 369 0
-854 -372 0
854 372 0
-855 -375 0
855 375 0
-856 -35 0
856 35 0
-857 -378 0
857 378 0
-858 -381 0
858 381 0
-859 -384 0
859 384 0
-860 -387 0
860 387 0
-861 -390 0
861 390 0
-862 -393 0
862 393 0
-863 -396 0
863 396 0
-864 -399 0
864 399 0
-865 -402 0
865 402 0
-866 -49 0
866 49 0
-867 -405 0
867 405 0
-868 -408 0
868 408 0
-869 -411 0
869 411 0
-870 -414 0
870 414 0
-871 -417 0
871 417 0
-872 -420 0
872 420 0
-873 -423 0
873 423 0
-874 -426 0
874 426 0
-875 -429 0
875 429 0
-876 -432 0
876 432 0
-877 -435 0
877 435 0
-878 -438 0
878 438 0
-879 -441 0
879 441 0
-880 -444 0
880 444 0
-881 -447 0
881 447 0
-882 -450 0
882 450 0
-883 -453 0
883 453 0
-884 -456 0
884 456 0
-885 -459 0
885 459 0
-886 -462 0
886 462 0
-887 -464 0
887 464 0
-888 -467 0
888 467 0
-889 -470 0
889 470 0
-890 -472 0
890 472 0
-891 -475 0
891 475 0
-892 -478 0
892 478 0
-893 -481 0
893 481 0
-894 -484 0
894 484 0
-895 -487 0
895 487 0
-896 -490 0
896 490 0
-897 -493 0
897 493 0
-898 -496 0
898 496 0
-899 -499 0
899 499 0
-900 -502 0
900 502 0
-901 -505 0
901 505 0
-902 -508 0
902 508 0
-903 -511 0
903 511 0
-904 -514 0
904 514 0
-905 -517 0
905 517 0
-906 -520 0
906 520 0
-907 -523 0
907 523 0
-908 -526 0
908 526 0
-909 -529 0
909 529 0
-910 -532 0
910 532 0
-911 -535 0
911 535 0
-912 -538 0
912 538 0
-913 -541 0
913 541 0
-914 -544 0
914 544 0
-915 -547 0
915 547 0
-916 -550 0
916 550 0
-917 -553 0
917 553 0
-918 -556 0
918 556 0
-919 -559 0
919 559 0
-920 -562 0
920 562 0
-921 -565 0
921 565 0
-922 -568 0
922 568 0
-923 -571 0
923 571 0
-924 -574 0
924 574 0
-925 -577 0
925 577 0
-926 -580 0
926 580 0
-927 -583 0
927 583 0
-928 -586 0
928 586 0
-929 -589 0
929 589 0
-930 -592 0
930 592 0
-931 -595 0
931 595 0
-932 -598 0
932 598 0
-933 -601 0
933 601 0
-934 -604 0
934 604 0
-935 -607 0
935 607 0
-936 -610 0
936 610 0
-937 -613 0
937 613 0
-938 -616 0
938 616 0
-939 -619 0
939 619 0
-940 -622 0
940 622 0
-941 -625 0
941 625 0
-942 -628 0
942 628 0
-943 -631 0
943 631 0
-944 -634 0
944 634 0
-945 -637 0
945 637 0
-946 -640 0
946 640 0
-947 -643 0
947 643 0
-948 -646 0
948 646 0
-949 -649 0
949 649 0
-950 -652 0
950 652 0
-951 -655 0
951 655 0
-952 -658 0
952 658 0
-953 -661 0
953 661 0
-954 -664 0
954 664 0
-955 -667 0
955 667 0
-956 -670 0
956 670 0
-957 -673 0
957 673 0
-958 -676 0
958 676 0
-959 -678 0
959 678 0
-960 -681 0
960 681 0
-961 -684 0
961 684 0
-962 -687 0
962 687 0
-963 -690 0
963 690 0
-964 -693 0
964 693 0
-965 -696 0
965 696 0
697 0
